174591175281836805010,14,1,2,07,1,1,2,04,10,1,2,07,14,1,2,010,3,1,2,06,11,1,2,012,4,1,2,015,9,1,2,04,9,1,2,012,10,1,2,015,11,1,2,010,13,1,2,01,1,1,2,013,7,1,2,04,5,1,2,07,15,1,2,09,15,1,2,05,12,1,2,09,12,1,2,03,14,1,2,012,9,1,2,07,11,1,2,09,14,1,2,07,14,1,2,012,15,1,2,015,14,1,2,03,6,1,2,012,11,1,2,011,5,1,2,015,5,1,2,04,15,1,2,013,2,1,2,07,15,1,2,014,12,1,2,011,7,1,2,09,5,1,2,02,15,1,2,02,2,1,2,06,3,1,2,07,2,1,2,013,10,1,2,015,2,1,2,05,2,1,2,03,1,1,2,03,9,1,2,09,3,1,2,015,4,1,2,015,15,1,2,09,1,1,2,011,5,1,2,0